(declare-const X String)
; Toolbar[^\n\r]*User-Agent\u{3A}\w+Host\u{3A}.*toX-Mailer\u{3a}Logsmax-Cookie\u{3a}AppName
(assert (str.in_re X (re.++ (str.to_re "Toolbar") (re.* (re.union (str.to_re "\u{a}") (str.to_re "\u{d}"))) (str.to_re "User-Agent:") (re.+ (re.union (re.range "0" "9") (re.range "A" "Z") (re.range "a" "z") (str.to_re "_"))) (str.to_re "Host:") (re.* re.allchar) (str.to_re "toX-Mailer:\u{13}Logsmax-Cookie:AppName\u{a}"))))
; /(\u{19}\u{0}|\u{0}\u{5C})\u{0}n\u{0}w\u{0}d\u{0}b\u{0}l\u{0}i\u{0}b\u{0}\.\u{0}d\u{0}l\u{0}l\u{0}\u{0}\u{0}/i
(assert (str.in_re X (re.++ (str.to_re "/") (re.union (str.to_re "\u{19}\u{0}") (str.to_re "\u{0}\u{5c}")) (str.to_re "\u{0}n\u{0}w\u{0}d\u{0}b\u{0}l\u{0}i\u{0}b\u{0}.\u{0}d\u{0}l\u{0}l\u{0}\u{0}\u{0}/i\u{a}"))))
(check-sat)
